data/solutions/recovery/wellformed/intermediate/binding/wellformed_intermediate_instance41/71.sol
Elapsed time: 100.46
Upper bound: 263159.0
Planning weighted value: 1031109883.0
C[0]=263159.0
C[1]=263146.0
C[2]=263145.0
C[3]=263069.0
C[4]=263061.0
C[5]=263037.0
C[6]=263033.0
C[7]=262973.0
C[8]=262957.0
C[9]=262947.0
C[10]=262842.0
C[11]=0.0
y[0]=2
y[1]=3
y[2]=6
y[3]=4
y[4]=5
y[5]=3
y[6]=1
y[7]=2
y[8]=5
y[9]=8
y[10]=5
y[11]=5
y[12]=7
y[13]=4
y[14]=3
y[15]=0
y[16]=4
y[17]=0
y[18]=5
y[19]=0
y[20]=10
y[21]=0
y[22]=2
y[23]=3
y[24]=1
y[25]=8
y[26]=1
y[27]=6
y[28]=2
y[29]=6
y[30]=5
y[31]=2
y[32]=2
y[33]=0
y[34]=10
y[35]=0
y[36]=0
y[37]=0
y[38]=3
y[39]=6
y[40]=1
y[41]=0
y[42]=9
y[43]=4
y[44]=2
y[45]=8
y[46]=5
y[47]=3
y[48]=1
y[49]=7
y[50]=1
y[51]=1
y[52]=4
y[53]=8
y[54]=5
y[55]=8
y[56]=6
y[57]=7
y[58]=7
y[59]=4
y[60]=5
y[61]=7
y[62]=3
y[63]=1
y[64]=10
y[65]=3
y[66]=7
y[67]=1
y[68]=3
y[69]=3
y[70]=9
y[71]=8
y[72]=6
y[73]=2
y[74]=7
y[75]=3
y[76]=1
y[77]=3
y[78]=7
y[79]=6
y[80]=0
y[81]=10
y[82]=4
y[83]=10
y[84]=9
y[85]=10
y[86]=9
y[87]=6
y[88]=9
y[89]=10
y[90]=7
y[91]=9
y[92]=7
y[93]=8
y[94]=7
y[95]=8
y[96]=9
y[97]=9
y[98]=8
y[99]=5
y[100]=10
y[101]=3
y[102]=9
y[103]=8
y[104]=9
y[105]=4
y[106]=2
y[107]=6
y[108]=10
y[109]=5
y[110]=5
y[111]=1
y[112]=9
y[113]=1
y[114]=5
y[115]=6
y[116]=3
y[117]=4
y[118]=8
y[119]=3
y[120]=5
y[121]=5
y[122]=9
y[123]=6
y[124]=6
y[125]=6
y[126]=4
y[127]=2
y[128]=3
y[129]=5
y[130]=10
y[131]=1
y[132]=4
y[133]=9
y[134]=6
y[135]=7
y[136]=7
y[137]=0
y[138]=10
y[139]=2
y[140]=7
y[141]=10
y[142]=10
y[143]=4
y[144]=9
y[145]=2
y[146]=10
y[147]=6
y[148]=10
y[149]=3
y[150]=3
y[151]=3
y[152]=7
y[153]=4
y[154]=0
y[155]=1
y[156]=2
y[157]=2
y[158]=9
y[159]=2
y[160]=2
y[161]=10
y[162]=2
y[163]=6
y[164]=9
y[165]=0
y[166]=5
y[167]=8
y[168]=4
y[169]=7
y[170]=2
y[171]=5
y[172]=0
y[173]=6
y[174]=10
y[175]=6
y[176]=1
y[177]=3
y[178]=4
y[179]=10
y[180]=8
y[181]=5
y[182]=0
y[183]=1
y[184]=4
y[185]=3
y[186]=1
y[187]=5
y[188]=10
y[189]=10
y[190]=1
y[191]=7
y[192]=4
y[193]=9
y[194]=8
y[195]=6
y[196]=2
y[197]=1
y[198]=7
y[199]=3
y[200]=1
y[201]=2
y[202]=6
y[203]=0
y[204]=6
y[205]=1
y[206]=6
y[207]=6
y[208]=10
y[209]=8
y[210]=2
y[211]=0
y[212]=0
y[213]=4
y[214]=2
y[215]=4
y[216]=3
y[217]=1
y[218]=1
y[219]=9
y[220]=9
y[221]=8
y[222]=9
y[223]=8
y[224]=9
y[225]=3
y[226]=5
y[227]=2
y[228]=3
y[229]=7
y[230]=1
y[231]=6
y[232]=7
y[233]=7
y[234]=1
y[235]=1
y[236]=7
y[237]=6
y[238]=2
y[239]=1
y[240]=2
y[241]=5
y[242]=1
y[243]=4
y[244]=5
y[245]=2
y[246]=2
y[247]=10
y[248]=5
y[249]=5
y[250]=7
y[251]=9
y[252]=10
y[253]=7
y[254]=0
y[255]=5
y[256]=9
y[257]=3
y[258]=10
y[259]=0
y[260]=0
y[261]=1
y[262]=9
y[263]=3
y[264]=8
y[265]=10
y[266]=6
y[267]=1
y[268]=7
y[269]=3
y[270]=9
y[271]=2
y[272]=2
y[273]=4
y[274]=5
y[275]=0
y[276]=0
y[277]=6
y[278]=0
y[279]=0
y[280]=10
y[281]=5
y[282]=8
y[283]=2
y[284]=9
y[285]=2
y[286]=8
y[287]=8
y[288]=5
y[289]=2
y[290]=4
y[291]=0
y[292]=10
y[293]=7
y[294]=0
y[295]=1
y[296]=9
y[297]=8
y[298]=0
y[299]=0
y[300]=7
y[301]=8
y[302]=0
y[303]=2
y[304]=5
y[305]=5
y[306]=9
y[307]=2
y[308]=10
y[309]=4
y[310]=4
y[311]=8
