data/solutions/recovery/wellformed/intermediate/binding/wellformed_intermediate_instance41/71.log

Log started (V12.6.3.0) Fri Apr 20 19:45:47 2018

New value for default parallel thread count: 1

Problem '/tmp/tmpPeI_Rk.pyomo.lp' read.
Read time = 0.13 sec. (12.97 ticks)

Problem name         : /tmp/tmpPeI_Rk.pyomo.lp
Objective sense      : Minimize
Variables            :    3758  [Nneg: 1,  Binary: 3744,  General Integer: 13]
Objective nonzeros   :       1
Linear constraints   :     650  [Less: 324,  Equal: 326]
  Nonzeros           :  961693
  RHS nonzeros       :     313

Variables            : Min LB: 0.000000         Max UB: 1.000000       
Objective nonzeros   : Min   : 1.000000         Max   : 1.000000       
Linear constraints   :
  Nonzeros           : Min   : 1.000000         Max   : 19298.00       
  RHS nonzeros       : Min   : 1.000000         Max   : 1.000000       
Tried aggregator 2 times.
MIP Presolve eliminated 595 rows and 3383 columns.
Aggregator did 11 substitutions.
Reduced MIP has 44 rows, 364 columns, and 737 nonzeros.
Reduced MIP has 363 binaries, 1 generals, 0 SOSs, and 0 indicators.
Presolve time = 0.04 sec. (57.33 ticks)
Found incumbent of value 622035.000000 after 0.07 sec. (79.67 ticks)
Probing time = 0.00 sec. (0.41 ticks)
Tried aggregator 1 time.
Reduced MIP has 44 rows, 364 columns, and 737 nonzeros.
Reduced MIP has 363 binaries, 1 generals, 0 SOSs, and 0 indicators.
Presolve time = 0.00 sec. (0.62 ticks)
Probing time = 0.00 sec. (0.41 ticks)
Clique table members: 33.
MIP emphasis: balance optimality and feasibility.
MIP search method: dynamic search.
Parallel mode: none, using 1 thread.
Root relaxation solution time = 0.00 sec. (0.70 ticks)

        Nodes                                         Cuts/
   Node  Left     Objective  IInf  Best Integer    Best Bound    ItCnt     Gap

*     0+    0                       622035.0000   241562.0000            61.17%
      0     0   263033.5455    19   622035.0000   263033.5455       74   57.71%
*     0+    0                       270140.0000   263033.5455             2.63%
      0     0   263034.0000    21   270140.0000      Fract: 7       91    2.63%
*     0+    0                       268961.0000   263034.0000             2.20%
      0     0   263034.0000    24   268961.0000      Cuts: 24      141    2.20%
*     0+    0                       268443.0000   263034.0000             2.01%
*     0+    0                       267830.0000   263034.0000             1.79%
      0     2   263034.0000    16   267830.0000   263034.0000      141    1.79%
Elapsed time = 0.09 sec. (97.68 ticks, tree = 0.01 MB, solutions = 5)
*    10+   10                       266649.0000   263034.0000             1.36%
*    20+   20                       266547.0000   263034.0000             1.32%
*    30+   30                       266033.0000   263034.0000             1.13%
*    40+   38                       265888.0000   263034.0000             1.07%
*    80+   73                       265032.0000   263034.0000             0.75%
*    80+   73                       264976.0000   263034.0000             0.73%
*   100+   90                       264733.0000   263034.0000             0.64%
*   200+  181                       264512.0000   263034.0000             0.56%
*   300+  234                       264470.0000   263034.0000             0.54%
*   400+  315                       264447.0000   263034.0000             0.53%
*   500+  361                       264364.0000   263034.0000             0.50%
*   611+  297                       264012.0000   263034.0000             0.37%
*   713+  242                       263774.0000   263034.0000             0.28%
*   713+  182                       263441.0000   263034.0000             0.15%
    713   184   263173.0000    14   263441.0000   263034.0000     2871    0.15%
    714   185   263173.0000    14   263441.0000   263034.0000     2878    0.15%
    715   186   263173.0000    14   263441.0000   263034.0000     2880    0.15%
    716   183        cutoff         263441.0000   263034.0000     2889    0.15%
    717   184   263173.0000    15   263441.0000   263034.0000     2892    0.15%
    718   184   263173.0000    15   263441.0000   263034.0000     2909    0.15%
    719   184   263173.0000    15   263441.0000   263034.0000     2910    0.15%
    720   185   263173.0000    16   263441.0000   263034.0000     2913    0.15%
    721   186   263173.0000    14   263441.0000   263034.0000     2918    0.15%
*  1113+  291                       263400.0000   263034.0000             0.14%
*  1113+  262                       263377.0000   263034.0000             0.13%
*  1113+  228                       263366.0000   263034.0000             0.13%
*  1413+  394                       263314.0000   263034.0000             0.11%
   1413   396   263207.0000    17   263314.0000   263034.0000     5772    0.11%
Elapsed time = 0.93 sec. (1058.19 ticks, tree = 0.14 MB, solutions = 23)
  13959 10833   263195.6000    18   263314.0000   263034.0000    37111    0.11%
  13960 10834   263195.6000    18   263314.0000   263034.0000    37114    0.11%
  13961 10835   263195.6000    17   263314.0000   263034.0000    37117    0.11%
  13962 10836   263195.6000    18   263314.0000   263034.0000    37118    0.11%
  13963 10837   263195.6000    18   263314.0000   263034.0000    37121    0.11%
  13964 10838   263195.6000    18   263314.0000   263034.0000    37122    0.11%
  13965 10839   263195.6000    18   263314.0000   263034.0000    37123    0.11%
  13966 10840   263195.6000    18   263314.0000   263034.0000    37124    0.11%
  13967 10841   263195.6000    18   263314.0000   263034.0000    37125    0.11%
  13968 10842   263195.6000    17   263314.0000   263034.0000    37126    0.11%
Elapsed time = 1.83 sec. (2012.31 ticks, tree = 3.99 MB, solutions = 23)
  29600 23712   263098.9000    17   263314.0000   263034.0000    74648    0.11%
  29601 23713   263098.9000    18   263314.0000   263034.0000    74650    0.11%
  29602 23714   263098.9000    17   263314.0000   263034.0000    74653    0.11%
  29603 23715   263098.9000    17   263314.0000   263034.0000    74654    0.11%
  29604 23716   263098.9000    17   263314.0000   263034.0000    74655    0.11%
  29605 23717   263098.9000    17   263314.0000   263034.0000    74656    0.11%
  29606 23718   263098.9000    17   263314.0000   263034.0000    74657    0.11%
  29607 23719   263128.7500    15   263314.0000   263034.0000    74659    0.11%
  29608 23720   263131.2222    15   263314.0000   263034.0000    74661    0.11%
  29609 23719        cutoff         263314.0000   263034.0000    74663    0.11%
Elapsed time = 2.71 sec. (2966.44 ticks, tree = 8.67 MB, solutions = 23)
  43414 33872   263238.2000     9   263314.0000   263034.0000   108672    0.11%
  43415 33873   263238.2000     9   263314.0000   263034.0000   108673    0.11%
  43416 33874   263238.2000     9   263314.0000   263034.0000   108674    0.11%
  43417 33875   263238.2000     9   263314.0000   263034.0000   108675    0.11%
  43418 33876   263238.2000     9   263314.0000   263034.0000   108676    0.11%
  43419 33877   263238.2000     9   263314.0000   263034.0000   108677    0.11%
  43420 33878   263238.2000     9   263314.0000   263034.0000   108678    0.11%
  43421 33879   263238.2000     9   263314.0000   263034.0000   108680    0.11%
  43422 33880   263238.2000     9   263314.0000   263034.0000   108682    0.11%
  43423 33879        cutoff         263314.0000   263034.0000   108685    0.11%
Elapsed time = 3.62 sec. (3920.59 ticks, tree = 12.97 MB, solutions = 23)
  58409 45166   263034.0000    15   263314.0000   263034.0000   145864    0.11%
  58410 45167   263034.0000    16   263314.0000   263034.0000   145865    0.11%
  58411 45168   263090.5556    16   263314.0000   263034.0000   145876    0.11%
  58412 45169   263069.6000    17   263314.0000   263034.0000   145879    0.11%
  58413 45170   263074.1111    15   263314.0000   263034.0000   145880    0.11%
  58414 45171   263074.1111    15   263314.0000   263034.0000   145881    0.11%
  58415 45172   263117.2500    14   263314.0000   263034.0000   145889    0.11%
  58416 45173   263074.1111    15   263314.0000   263034.0000   145890    0.11%
  58417 45174   263130.1250    14   263314.0000   263034.0000   145897    0.11%
  58418 45175   263074.1111    15   263314.0000   263034.0000   145906    0.11%
Elapsed time = 4.52 sec. (4874.94 ticks, tree = 16.70 MB, solutions = 23)
  71765 54448   263034.0000    16   263314.0000   263034.0000   177471    0.11%
  71766 54449   263034.0000    16   263314.0000   263034.0000   177472    0.11%
  71767 54448        cutoff         263314.0000   263034.0000   177474    0.11%
  71768 54449   263034.0000    16   263314.0000   263034.0000   177478    0.11%
  71769 54450   263034.0000    16   263314.0000   263034.0000   177479    0.11%
  71770 54451   263034.0000    16   263314.0000   263034.0000   177480    0.11%
  71771 54452   263034.0000    17   263314.0000   263034.0000   177483    0.11%
  71772 54453   263053.8889    16   263314.0000   263034.0000   177488    0.11%
  71773 54454   263053.8889    16   263314.0000   263034.0000   177489    0.11%
  71774 54455   263174.4286    12   263314.0000   263034.0000   177492    0.11%
Elapsed time = 5.42 sec. (5829.06 ticks, tree = 19.74 MB, solutions = 23)
  80345 58844   263078.5000    18   263314.0000   263034.0000   205532    0.11%
  80346 58845   263078.5000    18   263314.0000   263034.0000   205533    0.11%
  80347 58846   263078.5000    18   263314.0000   263034.0000   205534    0.11%
  80348 58847   263078.5000    18   263314.0000   263034.0000   205535    0.11%
  80349 58848   263078.5000    18   263314.0000   263034.0000   205539    0.11%
  80350 58849   263078.5000    18   263314.0000   263034.0000   205540    0.11%
  80351 58850   263078.5000    18   263314.0000   263034.0000   205541    0.11%
  80352 58851   263078.5000    17   263314.0000   263034.0000   205547    0.11%
  80353 58852   263078.5000    17   263314.0000   263034.0000   205555    0.11%
  80354 58853   263078.5000    17   263314.0000   263034.0000   205556    0.11%
Elapsed time = 6.33 sec. (6783.24 ticks, tree = 21.19 MB, solutions = 23)
  90422 63424   263281.6250    16   263314.0000   263034.0000   237314    0.11%
  90423 63423        cutoff         263314.0000   263034.0000   237317    0.11%
  90424 63422        cutoff         263314.0000   263034.0000   237319    0.11%
  90425 63423   263263.2222    19   263314.0000   263034.0000   237345    0.11%
  90426 63424   263263.2222    19   263314.0000   263034.0000   237346    0.11%
  90427 63425   263263.2222    17   263314.0000   263034.0000   237347    0.11%
  90428 63426   263263.2222    18   263314.0000   263034.0000   237348    0.11%
  90429 63427   263263.2222    18   263314.0000   263034.0000   237349    0.11%
  90430 63428   263298.0000    15   263314.0000   263034.0000   237350    0.11%
  90431 63429   263298.0000    14   263314.0000   263034.0000   237364    0.11%
Elapsed time = 7.23 sec. (7739.00 ticks, tree = 22.71 MB, solutions = 23)
 103748 73124   263278.9000    20   263314.0000   263034.0000   275018    0.11%
 103749 73125   263278.9000    21   263314.0000   263034.0000   275019    0.11%
 103750 73126   263278.9000    21   263314.0000   263034.0000   275020    0.11%
 103751 73127   263278.9000    21   263314.0000   263034.0000   275021    0.11%
 103752 73128   263278.9000    21   263314.0000   263034.0000   275023    0.11%
 103753 73129   263278.9000    20   263314.0000   263034.0000   275028    0.11%
 103754 73130   263278.9000    19   263314.0000   263034.0000   275031    0.11%
 103755 73131   263278.9000    20   263314.0000   263034.0000   275033    0.11%
 103756 73132   263278.9000    20   263314.0000   263034.0000   275034    0.11%
 103757 73132   263278.9000    19   263314.0000   263034.0000   275035    0.11%
Elapsed time = 8.12 sec. (8693.17 ticks, tree = 27.79 MB, solutions = 23)
 116372 82146   263034.0000    21   263314.0000   263034.0000   315350    0.11%
 116373 82147   263034.0000    20   263314.0000   263034.0000   315369    0.11%
 116374 82148   263034.0000    22   263314.0000   263034.0000   315372    0.11%
 116375 82149   263034.0000    19   263314.0000   263034.0000   315377    0.11%
 116376 82150   263034.0000    18   263314.0000   263034.0000   315392    0.11%
 116377 82151   263034.0000    17   263314.0000   263034.0000   315397    0.11%
 116378 82152   263034.0000    17   263314.0000   263034.0000   315400    0.11%
 116379 82153   263045.9223    18   263314.0000   263034.0000   315403    0.11%
 116380 82154   263242.8571    14   263314.0000   263034.0000   315405    0.11%
 154514 110654   263281.5000    14   263314.0000   263034.0000   426287    0.11%
Elapsed time = 11.68 sec. (12507.89 ticks, tree = 40.23 MB, solutions = 23)
*163628 73208      integral     0   263196.0000   263034.0000   452017    0.06%
 195477 94459   263034.0000    20   263196.0000   263034.0000   551470    0.06%
 195478 94460   263034.0000    20   263196.0000   263034.0000   551471    0.06%
 195479 94461   263034.0000    20   263196.0000   263034.0000   551472    0.06%
 195480 94462   263034.0000    20   263196.0000   263034.0000   551473    0.06%
 195481 94463   263034.0000    20   263196.0000   263034.0000   551474    0.06%
 195482 94464   263034.0000    19   263196.0000   263034.0000   551476    0.06%
 195483 94465   263034.0000    19   263196.0000   263034.0000   551478    0.06%
 195484 94466   263034.0000    20   263196.0000   263034.0000   551480    0.06%
 195485 94467   263034.0000    19   263196.0000   263034.0000   551484    0.06%
 195486 94468   263034.0000    19   263196.0000   263034.0000   551485    0.06%
Elapsed time = 15.35 sec. (16323.15 ticks, tree = 34.52 MB, solutions = 24)
 234681 119590        cutoff         263196.0000   263034.0000   667857    0.06%
 234682 119591   263116.7000    17   263196.0000   263034.0000   667864    0.06%
 234683 119592   263116.7000    16   263196.0000   263034.0000   667865    0.06%
 234684 119593   263116.7000    15   263196.0000   263034.0000   667867    0.06%
 234685 119594   263116.7000    15   263196.0000   263034.0000   667868    0.06%
 234686 119595   263116.7000    16   263196.0000   263034.0000   667869    0.06%
 234687 119596   263116.7000    16   263196.0000   263034.0000   667870    0.06%
 234688 119597   263116.7000    16   263196.0000   263034.0000   667871    0.06%
 234689 119598   263116.7000    16   263196.0000   263034.0000   667872    0.06%
 234690 119599   263116.7000    16   263196.0000   263034.0000   667873    0.06%
Elapsed time = 18.99 sec. (20138.33 ticks, tree = 42.74 MB, solutions = 24)
 274034 145799   263047.6000    17   263196.0000   263034.0000   787583    0.06%
 274035 145800   263047.6000    17   263196.0000   263034.0000   787584    0.06%
 274036 145801   263047.6000    18   263196.0000   263034.0000   787588    0.06%
 274037 145802   263047.6000    18   263196.0000   263034.0000   787589    0.06%
 274038 145803   263047.6000    18   263196.0000   263034.0000   787590    0.06%
 274039 145802        cutoff         263196.0000   263034.0000   787591    0.06%
 274040 145803   263047.6000    18   263196.0000   263034.0000   787595    0.06%
 274041 145804   263103.4444    16   263196.0000   263034.0000   787599    0.06%
 274042 145805   263103.4444    16   263196.0000   263034.0000   787603    0.06%
 274043 145806   263103.4444    16   263196.0000   263034.0000   787604    0.06%
Elapsed time = 22.59 sec. (23954.61 ticks, tree = 52.98 MB, solutions = 24)
*309913+164924                       263191.0000   263034.0000             0.06%
*309913+158233                       263185.0000   263034.0000             0.06%
 310278 158466   263034.0000    19   263185.0000   263034.0000   901949    0.06%
 310279 158467   263034.0000    19   263185.0000   263034.0000   901956    0.06%
 310280 158468   263034.0000    20   263185.0000   263034.0000   901958    0.06%
 310281 158469   263043.8000    18   263185.0000   263034.0000   901964    0.06%
 310282 158470   263034.0000    20   263185.0000   263034.0000   901966    0.06%
 310283 158471   263034.0000    19   263185.0000   263034.0000   901970    0.06%
 310284 158472   263034.0000    19   263185.0000   263034.0000   901978    0.06%
 310285 158473   263034.0000    19   263185.0000   263034.0000   901982    0.06%
 310286 158474   263034.0000    19   263185.0000   263034.0000   901983    0.06%
 310287 158473        cutoff         263185.0000   263034.0000   901986    0.06%
Elapsed time = 26.21 sec. (27770.38 ticks, tree = 58.22 MB, solutions = 26)
 352863 186691   263151.5556    15   263185.0000   263034.0000  1025096    0.06%
 352864 186692   263151.5556    15   263185.0000   263034.0000  1025098    0.06%
 352865 186691    infeasible         263185.0000   263034.0000  1025098    0.06%
 352866 186690        cutoff         263185.0000   263034.0000  1025103    0.06%
 352867 186689        cutoff         263185.0000   263034.0000  1025108    0.06%
 352868 186690   263034.0000    18   263185.0000   263034.0000  1025121    0.06%
 352869 186691   263034.0000    18   263185.0000   263034.0000  1025122    0.06%
 352870 186692   263034.0000    18   263185.0000   263034.0000  1025125    0.06%
 352871 186693   263034.0000    19   263185.0000   263034.0000  1025128    0.06%
 352872 186694   263034.0000    19   263185.0000   263034.0000  1025132    0.06%
Elapsed time = 29.74 sec. (31587.86 ticks, tree = 67.44 MB, solutions = 26)
 394400 214121   263034.0000    19   263185.0000   263034.0000  1139728    0.06%
 394401 214122   263034.0000    19   263185.0000   263034.0000  1139730    0.06%
 394402 214123   263034.0000    20   263185.0000   263034.0000  1139735    0.06%
 394403 214123   263034.0000    19   263185.0000   263034.0000  1139736    0.06%
 394404 214124   263034.0000    20   263185.0000   263034.0000  1139739    0.06%
 394405 214124   263034.0000    20   263185.0000   263034.0000  1139742    0.06%
 394406 214123        cutoff         263185.0000   263034.0000  1139743    0.06%
 394407 214122    infeasible         263185.0000   263034.0000  1139743    0.06%
 394408 214123   263034.0000    18   263185.0000   263034.0000  1139745    0.06%
 394409 214124   263034.0000    18   263185.0000   263034.0000  1139746    0.06%
Elapsed time = 33.31 sec. (35404.23 ticks, tree = 77.75 MB, solutions = 26)
 436587 241359    infeasible         263185.0000   263034.0000  1251039    0.06%
 436588 241360   263034.0000    19   263185.0000   263034.0000  1251042    0.06%
 436589 241361   263034.0000    19   263185.0000   263034.0000  1251044    0.06%
 436590 241360        cutoff         263185.0000   263034.0000  1251046    0.06%
 436591 241359        cutoff         263185.0000   263034.0000  1251049    0.06%
 436592 241360   263034.0000    19   263185.0000   263034.0000  1251054    0.06%
 436593 241359        cutoff         263185.0000   263034.0000  1251057    0.06%
 436594 241358        cutoff         263185.0000   263034.0000  1251059    0.06%
 436595 241359   263034.0000    18   263185.0000   263034.0000  1251060    0.06%
 436596 241360   263036.7778    17   263185.0000   263034.0000  1251062    0.06%
Elapsed time = 36.88 sec. (39219.51 ticks, tree = 88.25 MB, solutions = 26)
 482359 273256   263180.3333    20   263185.0000   263034.0000  1372780    0.06%
 482360 273257   263180.3333    19   263185.0000   263034.0000  1372787    0.06%
 482361 273258   263180.3333    19   263185.0000   263034.0000  1372790    0.06%
 482362 273259   263180.3333    20   263185.0000   263034.0000  1372791    0.06%
 482363 273260   263180.3333    19   263185.0000   263034.0000  1372793    0.06%
 482364 273259        cutoff         263185.0000   263034.0000  1372799    0.06%
 482365 273260   263180.3333    16   263185.0000   263034.0000  1372804    0.06%
 482366 273261   263180.3333    17   263185.0000   263034.0000  1372806    0.06%
 482367 273262   263180.3333    19   263185.0000   263034.0000  1372808    0.06%
 482368 273263   263180.3333    16   263185.0000   263034.0000  1372810    0.06%
Elapsed time = 40.43 sec. (43034.83 ticks, tree = 100.63 MB, solutions = 26)
 525166 302443   263159.7778    14   263185.0000   263034.0000  1502802    0.06%
 525167 302444   263159.7778    13   263185.0000   263034.0000  1502805    0.06%
 525168 302445   263159.7778    14   263185.0000   263034.0000  1502806    0.06%
 525169 302446   263159.7778    14   263185.0000   263034.0000  1502809    0.06%
 525170 302447   263159.7778    14   263185.0000   263034.0000  1502810    0.06%
 525171 302448   263159.7778    14   263185.0000   263034.0000  1502811    0.06%
 525172 302449   263159.7778    14   263185.0000   263034.0000  1502813    0.06%
 525173 302450   263159.7778    14   263185.0000   263034.0000  1502815    0.06%
 525174 302451   263159.7778    14   263185.0000   263034.0000  1502817    0.06%
 525175 302452   263159.7778    14   263185.0000   263034.0000  1502818    0.06%
Elapsed time = 44.04 sec. (46850.01 ticks, tree = 110.14 MB, solutions = 26)
 562696 326778   263034.0000    21   263185.0000   263034.0000  1611177    0.06%
 562697 326779   263034.0000    21   263185.0000   263034.0000  1611178    0.06%
 562698 326780   263034.0000    21   263185.0000   263034.0000  1611180    0.06%
 562699 326781   263034.0000    18   263185.0000   263034.0000  1611183    0.06%
 562700 326782   263034.0000    18   263185.0000   263034.0000  1611184    0.06%
 562701 326783   263034.0000    19   263185.0000   263034.0000  1611192    0.06%
 562702 326784   263034.0000    18   263185.0000   263034.0000  1611201    0.06%
 562703 326785   263034.0000    19   263185.0000   263034.0000  1611205    0.06%
 562704 326786   263034.0000    18   263185.0000   263034.0000  1611207    0.06%
 562705 326787   263034.0000    17   263185.0000   263034.0000  1611216    0.06%
Elapsed time = 47.65 sec. (50665.70 ticks, tree = 120.42 MB, solutions = 26)
 600101 350487   263062.5556    16   263185.0000   263034.0000  1720497    0.06%
 600102 350488   263062.5556    16   263185.0000   263034.0000  1720498    0.06%
 600103 350489   263062.5556    16   263185.0000   263034.0000  1720499    0.06%
 600104 350490   263062.5556    16   263185.0000   263034.0000  1720502    0.06%
 600105 350491   263062.5556    16   263185.0000   263034.0000  1720503    0.06%
 600106 350492   263062.5556    16   263185.0000   263034.0000  1720504    0.06%
 600107 350493   263062.5556    16   263185.0000   263034.0000  1720505    0.06%
 600108 350494   263062.5556    17   263185.0000   263034.0000  1720510    0.06%
 600109 350495   263062.5556    17   263185.0000   263034.0000  1720511    0.06%
 600110 350496   263062.5556    16   263185.0000   263034.0000  1720512    0.06%
Elapsed time = 51.25 sec. (54481.20 ticks, tree = 128.18 MB, solutions = 26)
 638202 373173        cutoff         263185.0000   263034.0000  1817255    0.06%
 638203 373174   263167.5000    21   263185.0000   263034.0000  1817256    0.06%
 638204 373174   263167.5000    20   263185.0000   263034.0000  1817259    0.06%
 638205 373175   263167.5000    21   263185.0000   263034.0000  1817262    0.06%
 638206 373176   263167.5000    20   263185.0000   263034.0000  1817264    0.06%
 638207 373176   263167.5000    21   263185.0000   263034.0000  1817265    0.06%
 638208 373177   263171.8889    19   263185.0000   263034.0000  1817267    0.06%
 638209 373176        cutoff         263185.0000   263034.0000  1817269    0.06%
 638210 373175        cutoff         263185.0000   263034.0000  1817272    0.06%
 638211 373174        cutoff         263185.0000   263034.0000  1817275    0.06%
Elapsed time = 54.82 sec. (58296.45 ticks, tree = 135.68 MB, solutions = 26)
 683331 403901   263034.0000    24   263185.0000   263034.0000  1935245    0.06%
 683332 403902   263034.0000    24   263185.0000   263034.0000  1935247    0.06%
 683333 403903   263034.0000    22   263185.0000   263034.0000  1935248    0.06%
 683334 403904   263034.0000    23   263185.0000   263034.0000  1935251    0.06%
 683335 403905   263034.0000    19   263185.0000   263034.0000  1935261    0.06%
 683336 403906   263034.0000    19   263185.0000   263034.0000  1935264    0.06%
 683337 403907   263034.0000    18   263185.0000   263034.0000  1935267    0.06%
 683338 403908   263034.0000    18   263185.0000   263034.0000  1935268    0.06%
 683339 403909   263034.0000    18   263185.0000   263034.0000  1935276    0.06%
 683340 403910   263034.0000    20   263185.0000   263034.0000  1935281    0.06%
Elapsed time = 58.39 sec. (62112.31 ticks, tree = 148.43 MB, solutions = 26)
 724183 430626   263105.0000    12   263185.0000   263034.0000  2055359    0.06%
 724184 430627   263139.0000     8   263185.0000   263034.0000  2055362    0.06%
 724185 430628   263139.0000     8   263185.0000   263034.0000  2055363    0.06%
 724186 430629   263139.0000     9   263185.0000   263034.0000  2055368    0.06%
 724187 430630   263139.0000     8   263185.0000   263034.0000  2055369    0.06%
 724188 430631   263139.0000    11   263185.0000   263034.0000  2055375    0.06%
 724189 430632   263139.0000    12   263185.0000   263034.0000  2055376    0.06%
 724190 430633   263139.0000    10   263185.0000   263034.0000  2055378    0.06%
 724191 430634   263139.0000    11   263185.0000   263034.0000  2055379    0.06%
 724192 430635   263139.0000    11   263185.0000   263034.0000  2055381    0.06%
Elapsed time = 62.02 sec. (65927.54 ticks, tree = 157.26 MB, solutions = 26)
 771650 463090   263169.0000    18   263185.0000   263034.0000  2186373    0.06%
 771651 463091   263169.0000    15   263185.0000   263034.0000  2186375    0.06%
 771652 463092   263169.0000    15   263185.0000   263034.0000  2186378    0.06%
 771653 463093   263169.0000    16   263185.0000   263034.0000  2186384    0.06%
 771654 463094   263169.0000    14   263185.0000   263034.0000  2186391    0.06%
 771655 463095   263169.0000    14   263185.0000   263034.0000  2186392    0.06%
 771656 463096   263169.0000    15   263185.0000   263034.0000  2186396    0.06%
 771657 463097   263169.0000    15   263185.0000   263034.0000  2186399    0.06%
 771658 463098   263169.0000    15   263185.0000   263034.0000  2186402    0.06%
 771659 463099   263169.0000    15   263185.0000   263034.0000  2186404    0.06%
Elapsed time = 65.60 sec. (69742.80 ticks, tree = 167.92 MB, solutions = 26)
*783070 459249      integral     0   263180.0000   263034.0000  2217973    0.06%
 814239 480672   263034.0000    17   263180.0000   263034.0000  2303023    0.06%
 814240 480673   263034.0000    17   263180.0000   263034.0000  2303024    0.06%
 814241 480674   263034.0000    17   263180.0000   263034.0000  2303026    0.06%
 814242 480675   263078.4000    16   263180.0000   263034.0000  2303027    0.06%
 814243 480676   263034.0000    17   263180.0000   263034.0000  2303029    0.06%
 814244 480677   263034.0000    16   263180.0000   263034.0000  2303033    0.06%
 814245 480678   263034.0000    17   263180.0000   263034.0000  2303035    0.06%
 814246 480679   263034.0000    17   263180.0000   263034.0000  2303048    0.06%
 814247 480680   263034.0000    17   263180.0000   263034.0000  2303050    0.06%
 814248 480681   263100.2222    16   263180.0000   263034.0000  2303052    0.06%
Elapsed time = 69.22 sec. (73558.56 ticks, tree = 176.93 MB, solutions = 27)
 854907 507508    infeasible         263180.0000   263034.0000  2409581    0.06%
 854908 507509   263034.0000    17   263180.0000   263034.0000  2409587    0.06%
 854909 507510   263034.0000    17   263180.0000   263034.0000  2409590    0.06%
 854910 507511   263034.0000    17   263180.0000   263034.0000  2409591    0.06%
 854911 507511   263034.0000    17   263180.0000   263034.0000  2409592    0.06%
 854912 507512   263034.0000    17   263180.0000   263034.0000  2409594    0.06%
 854913 507513   263044.7778    16   263180.0000   263034.0000  2409595    0.06%
 854914 507514   263044.7778    17   263180.0000   263034.0000  2409597    0.06%
 854915 507515   263044.7778    18   263180.0000   263034.0000  2409604    0.06%
 854916 507516   263044.7778    17   263180.0000   263034.0000  2409607    0.06%
Elapsed time = 72.78 sec. (77374.25 ticks, tree = 185.72 MB, solutions = 27)
 900940 539921   263161.2222    16   263180.0000   263034.0000  2537142    0.06%
 900941 539922   263161.2222    16   263180.0000   263034.0000  2537143    0.06%
 900942 539923   263161.2222    16   263180.0000   263034.0000  2537144    0.06%
 900943 539922        cutoff         263180.0000   263034.0000  2537145    0.06%
 900944 539921        cutoff         263180.0000   263034.0000  2537147    0.06%
 900945 539922   263034.0000    18   263180.0000   263034.0000  2537152    0.06%
 900946 539923   263034.0000    18   263180.0000   263034.0000  2537153    0.06%
 900947 539924   263034.0000    18   263180.0000   263034.0000  2537154    0.06%
 900948 539925   263052.9000    17   263180.0000   263034.0000  2537157    0.06%
 900949 539924    infeasible         263180.0000   263034.0000  2537157    0.06%
Elapsed time = 76.36 sec. (81191.09 ticks, tree = 196.31 MB, solutions = 27)
 941030 566086   263034.0000    19   263180.0000   263034.0000  2647932    0.06%
 941031 566087   263034.0000    19   263180.0000   263034.0000  2647934    0.06%
 941032 566088   263034.0000    17   263180.0000   263034.0000  2647938    0.06%
 941033 566089   263034.0000    17   263180.0000   263034.0000  2647942    0.06%
 941034 566090   263034.0000    18   263180.0000   263034.0000  2647943    0.06%
 941035 566091   263034.0000    18   263180.0000   263034.0000  2647944    0.06%
 941036 566092   263034.0000    18   263180.0000   263034.0000  2647946    0.06%
 941037 566093   263034.0000    18   263180.0000   263034.0000  2647948    0.06%
 941038 566094   263034.0000    17   263180.0000   263034.0000  2647950    0.06%
 941039 566095   263034.0000    19   263180.0000   263034.0000  2647955    0.06%
Elapsed time = 79.92 sec. (85006.26 ticks, tree = 209.01 MB, solutions = 27)
 984749 596275   263051.9000    17   263180.0000   263034.0000  2768933    0.06%
 984750 596276   263051.9000    16   263180.0000   263034.0000  2768935    0.06%
 984751 596277   263051.9000    17   263180.0000   263034.0000  2768936    0.06%
 984752 596278   263051.9000    17   263180.0000   263034.0000  2768938    0.06%
 984753 596279   263051.9000    17   263180.0000   263034.0000  2768941    0.06%
 984754 596280   263051.9000    17   263180.0000   263034.0000  2768942    0.06%
 984755 596281   263051.9000    18   263180.0000   263034.0000  2768947    0.06%
 984756 596282   263051.9000    16   263180.0000   263034.0000  2768951    0.06%
 984757 596283   263051.9000    20   263180.0000   263034.0000  2768956    0.06%
 984758 596284   263051.9000    20   263180.0000   263034.0000  2768957    0.06%
Elapsed time = 83.53 sec. (88821.61 ticks, tree = 218.96 MB, solutions = 27)
 1025613 623522   263145.8000    17   263180.0000   263034.0000  2885727    0.06%
 1025614 623523   263145.8000    17   263180.0000   263034.0000  2885733    0.06%
 1025615 623524   263145.8000    18   263180.0000   263034.0000  2885743    0.06%
 1025616 623525   263145.8000    16   263180.0000   263034.0000  2885745    0.06%
 1025617 623526   263145.8000    17   263180.0000   263034.0000  2885750    0.06%
 1025618 623527   263145.8000    17   263180.0000   263034.0000  2885752    0.06%
 1025619 623528   263145.8000    18   263180.0000   263034.0000  2885755    0.06%
 1025620 623529   263145.8000    17   263180.0000   263034.0000  2885758    0.06%
 1025621 623530   263145.8000    19   263180.0000   263034.0000  2885761    0.06%
 1025622 623529    infeasible         263180.0000   263034.0000  2885761    0.06%
Elapsed time = 87.15 sec. (92640.19 ticks, tree = 227.96 MB, solutions = 27)
*1060213+564115                       263159.0000   263034.0000             0.05%
 1061613 564788   263044.7778    17   263159.0000   263034.0000  2988379    0.05%
 1061614 564789   263044.7778    18   263159.0000   263034.0000  2988380    0.05%
 1061615 564790   263044.7778    18   263159.0000   263034.0000  2988382    0.05%
 1061616 564791   263044.7778    18   263159.0000   263034.0000  2988388    0.05%
 1061617 564791   263044.7778    19   263159.0000   263034.0000  2988400    0.05%
 1061618 564790        cutoff         263159.0000   263034.0000  2988402    0.05%
 1061619 564791   263049.6667    22   263159.0000   263034.0000  2988409    0.05%
 1061620 564792   263056.8750    20   263159.0000   263034.0000  2988410    0.05%
 1061621 564793   263056.8750    19   263159.0000   263034.0000  2988411    0.05%
 1061622 564794   263056.8750    20   263159.0000   263034.0000  2988412    0.05%
Elapsed time = 90.81 sec. (96487.36 ticks, tree = 208.10 MB, solutions = 28)
 1086914 579978   263120.5556    16   263159.0000   263034.0000  3062575    0.05%
 1086915 579979   263120.5556    18   263159.0000   263034.0000  3062585    0.05%
 1086916 579980   263120.5556    16   263159.0000   263034.0000  3062591    0.05%
 1086917 579981   263120.5556    16   263159.0000   263034.0000  3062593    0.05%
 1086918 579982   263120.5556    16   263159.0000   263034.0000  3062594    0.05%
 1086919 579983   263120.5556    17   263159.0000   263034.0000  3062595    0.05%
 1086920 579984   263120.5556    16   263159.0000   263034.0000  3062596    0.05%
 1086921 579985   263120.5556    17   263159.0000   263034.0000  3062597    0.05%
 1086922 579986   263120.5556    17   263159.0000   263034.0000  3062598    0.05%
 1086923 579987   263120.5556    18   263159.0000   263034.0000  3062602    0.05%
Elapsed time = 94.34 sec. (100302.61 ticks, tree = 213.09 MB, solutions = 28)
 1126043 604109   263114.6250    16   263159.0000   263034.0000  3180150    0.05%
 1126044 604110   263114.6250    16   263159.0000   263034.0000  3180151    0.05%
 1126045 604109        cutoff         263159.0000   263034.0000  3180153    0.05%
 1126046 604110   263114.6250    16   263159.0000   263034.0000  3180155    0.05%
 1126047 604109        cutoff         263159.0000   263034.0000  3180156    0.05%
 1126048 604108        cutoff         263159.0000   263034.0000  3180158    0.05%
 1126049 604109   263034.0000    22   263159.0000   263034.0000  3180163    0.05%
 1126050 604110   263034.0000    20   263159.0000   263034.0000  3180164    0.05%
 1126051 604111   263034.0000    20   263159.0000   263034.0000  3180167    0.05%
 1126052 604112   263034.0000    20   263159.0000   263034.0000  3180168    0.05%
Elapsed time = 97.95 sec. (104117.88 ticks, tree = 221.05 MB, solutions = 28)

Cover cuts applied:  12
Mixed integer rounding cuts applied:  6

Root node processing (before b&c):
  Real time             =    0.09 sec. (98.40 ticks)
Sequential b&c:
  Real time             =   99.91 sec. (106338.14 ticks)
                          ------------
Total (root+branch&cut) =  100.00 sec. (106436.54 ticks)

Solution pool: 28 solutions saved.

MIP - Time limit exceeded, integer feasible:  Objective =  2.6315900000e+05
Current MIP best bound =  2.6303400000e+05 (gap = 125, 0.05%)
Solution time =  100.00 sec.  Iterations = 3233623  Nodes = 1144785 (614499)
Deterministic time = 106436.55 ticks  (1064.36 ticks/sec)


Incumbent solution written to file '/tmp/tmpdnr1oP.cplex.sol'.
